n = 100;
C = 23878;
w = [669,963,291,165,9,808,88,736,71,528,541,797,144,13,190,841,482,583,409,427,677,998,737,911,767,906,63,118,584,668,588,188,431,442,760,281,155,62,270,153,947,544,406,372,535,223,474,462,781,924,417,80,605,520,751,277,860,824,51,334,525,280,239,54,531,574,268,255,921,818,364,947,26,757,829,92,817,367,93,133,419,166,625,14,736,102,876,372,629,44,998,742,181,474,898,178,915,335,383,878];
p = [599,1015,200,134,14,790,135,641,5,489,449,699,129,-68,168,885,440,645,311,486,672,924,765,814,782,873,-25,157,545,733,573,242,342,516,832,342,243,81,235,191,989,483,369,294,571,129,537,539,739,851,350,53,505,612,779,292,955,749,128,255,513,212,278,55,557,653,209,347,921,842,322,915,71,745,874,23,895,349,132,79,319,167,713,33,683,183,882,407,618,86,961,726,146,449,865,138,903,316,324,927];
